# Objective value = 59
WA1n 0
WA1p 0
WA2n 1
WA2p 0
WB1n 0
WB1p 0
WB2n 1
WB2p 0
WC1n 1
WC1p 0
WD1n 1
WD1p 0
WE1n 1
WE1p 0
WF1n 0
WF1p 1
WG1n 0
WG1p 1
WH1n 0
WH1p 1
WI1n 0
WI1p 1
WJ1n 0
WJ1p 1
WK1n 8
WK1p 0
WK2n 1
WK2p 0
WL1n 8
WL1p 0
WL2n 1
WL2p 0
WM1n 8
WM1p 0
WM2n 1
WM2p 0
WN1n 0
WN1p 8
WN2n 0
WN2p 1
WT1n 0
WT1p 5
WT2n 0
WT2p 1
5 7
a 0
b 0
c 0
d 0
e 0
f 0
g 0
h 1
i 1
j 1
k 1
l 1
m 0
n 0
o 0
p 0
q 0
r 0
s 1
t 1
u 1
v 1
